243
412
313
214
310
328
247
195
210
284
218
150
198
429
436
431
270
285
261
128
398
191
299
267
290
274
219
303
403
200
355
349
251
397
483
468
219
217
264
657
362
152
287
186
517
211
388
247
243
164
262
121
325
304
317
254
218
328
310
187
307
833
206
319
284
293
292
246
282
278
312
182
281
393
342
295
282
369
525
442
191
338
232
346
283
202
232
211
293
451
177
270
216
413
229
762
271
292
183
302
